#Data

param a :
  1 2 3 4 5 6 :=
1 12.64 12.64 7.36 8.08 11.52 11.92
2 13.2 13.2 11.52 11.84 7.36 8.16
3 13.44 12.96 11.84 8.16 8.08 7.28
4 8.72 7.36 12.64 12.64 13.44 13.2;

param c1 := 1 5000 2 2000 3 2000 4 2000 ;

param c2 := 1 1000 2 1000 3 1000 4 1000;

param d1 := 1 500 2 700 3 900 4 800 5 1000 6 600;

param d2 := 1 50 2 90 3 120 4 65 5 120 6 70;

param f1 := 1 5000 2 2200 3 2200 4 2200;

param f2 := 1 1500 2 1500 3 1500 4 1500;
